\ENCODING=ISO-8859-1
\Problem name: IloCplex

Maximize
 obj1: 45 Y(0,1,0) + 45 Y(0,1,1) + 49 Y(0,2,0) + 49 Y(0,2,1) + 19 Y(0,3,0)
       + 19 Y(0,3,1) + 90 Y(0,4,0) + 90 Y(0,4,1) + 33 Y(0,5,0) + 33 Y(0,5,1)
       + 39 Y(0,6,0) + 39 Y(0,6,1) + 9 Y(0,7,0) + 9 Y(0,7,1) + 45 Y(1,0,0)
       + 45 Y(1,0,1) + 20 Y(1,2,0) + 20 Y(1,2,1) + 61 Y(1,3,0) + 61 Y(1,3,1)
       + 39 Y(1,4,0) + 39 Y(1,4,1) + 21 Y(1,5,0) + 21 Y(1,5,1) + 47 Y(1,6,0)
       + 47 Y(1,6,1) + 96 Y(1,7,0) + 96 Y(1,7,1) + 49 Y(2,0,0) + 49 Y(2,0,1)
       + 20 Y(2,1,0) + 20 Y(2,1,1) + 75 Y(2,3,0) + 75 Y(2,3,1) + 16 Y(2,4,0)
       + 16 Y(2,4,1) + 17 Y(2,5,0) + 17 Y(2,5,1) + 28 Y(2,6,0) + 28 Y(2,6,1)
       + 98 Y(2,7,0) + 98 Y(2,7,1) + 19 Y(3,0,0) + 19 Y(3,0,1) + 61 Y(3,1,0)
       + 61 Y(3,1,1) + 75 Y(3,2,0) + 75 Y(3,2,1) + 93 Y(3,4,0) + 93 Y(3,4,1)
       + 43 Y(3,5,0) + 43 Y(3,5,1) + 60 Y(3,6,0) + 60 Y(3,6,1) + 79 Y(3,7,0)
       + 79 Y(3,7,1) + 90 Y(4,0,0) + 90 Y(4,0,1) + 39 Y(4,1,0) + 39 Y(4,1,1)
       + 16 Y(4,2,0) + 16 Y(4,2,1) + 93 Y(4,3,0) + 93 Y(4,3,1) + 69 Y(4,5,0)
       + 69 Y(4,5,1) + 79 Y(4,6,0) + 79 Y(4,6,1) + 33 Y(4,7,0) + 33 Y(4,7,1)
       + 33 Y(5,0,0) + 33 Y(5,0,1) + 21 Y(5,1,0) + 21 Y(5,1,1) + 17 Y(5,2,0)
       + 17 Y(5,2,1) + 43 Y(5,3,0) + 43 Y(5,3,1) + 69 Y(5,4,0) + 69 Y(5,4,1)
       + 16 Y(5,6,0) + 16 Y(5,6,1) + 86 Y(5,7,0) + 86 Y(5,7,1) + 39 Y(6,0,0)
       + 39 Y(6,0,1) + 47 Y(6,1,0) + 47 Y(6,1,1) + 28 Y(6,2,0) + 28 Y(6,2,1)
       + 60 Y(6,3,0) + 60 Y(6,3,1) + 79 Y(6,4,0) + 79 Y(6,4,1) + 16 Y(6,5,0)
       + 16 Y(6,5,1) + 56 Y(6,7,0) + 56 Y(6,7,1) + 9 Y(7,0,0) + 9 Y(7,0,1)
       + 96 Y(7,1,0) + 96 Y(7,1,1) + 98 Y(7,2,0) + 98 Y(7,2,1) + 79 Y(7,3,0)
       + 79 Y(7,3,1) + 33 Y(7,4,0) + 33 Y(7,4,1) + 86 Y(7,5,0) + 86 Y(7,5,1)
       + 56 Y(7,6,0) + 56 Y(7,6,1)
Subject To
 R_Seat(0):             X(0,0) + X(0,1)  = 1
 R_Seat(1):             X(1,0) + X(1,1)  = 1
 R_Seat(2):             X(2,0) + X(2,1)  = 1
 R_Seat(3):             X(3,0) + X(3,1)  = 1
 R_Seat(4):             X(4,0) + X(4,1)  = 1
 R_Seat(5):             X(5,0) + X(5,1)  = 1
 R_Seat(6):             X(6,0) + X(6,1)  = 1
 R_Seat(7):             X(7,0) + X(7,1)  = 1
 R_Capacity(0):         X(0,0) + X(1,0) + X(2,0) + X(3,0) + X(4,0) + X(5,0)
                        + X(6,0) + X(7,0) <= 3
 R_Capacity(1):         X(0,1) + X(1,1) + X(2,1) + X(3,1) + X(4,1) + X(5,1)
                        + X(6,1) + X(7,1) <= 5
 R_SameTable(T0)(P0,0): X(0,0) - Y(0,0,0) >= 0
 R_SameTable(T0)(P0,1): 0.5 X(0,0) + 0.5 X(1,0) - Y(0,1,0) >= 0
 R_SameTable(T0)(P0,2): 0.5 X(0,0) + 0.5 X(2,0) - Y(0,2,0) >= 0
 R_SameTable(T0)(P0,3): 0.5 X(0,0) + 0.5 X(3,0) - Y(0,3,0) >= 0
 R_SameTable(T0)(P0,4): 0.5 X(0,0) + 0.5 X(4,0) - Y(0,4,0) >= 0
 R_SameTable(T0)(P0,5): 0.5 X(0,0) + 0.5 X(5,0) - Y(0,5,0) >= 0
 R_SameTable(T0)(P0,6): 0.5 X(0,0) + 0.5 X(6,0) - Y(0,6,0) >= 0
 R_SameTable(T0)(P0,7): 0.5 X(0,0) + 0.5 X(7,0) - Y(0,7,0) >= 0
 R_SameTable(T0)(P1,0): 0.5 X(0,0) + 0.5 X(1,0) - Y(1,0,0) >= 0
 R_SameTable(T0)(P1,1): X(1,0) - Y(1,1,0) >= 0
 R_SameTable(T0)(P1,2): 0.5 X(1,0) + 0.5 X(2,0) - Y(1,2,0) >= 0
 R_SameTable(T0)(P1,3): 0.5 X(1,0) + 0.5 X(3,0) - Y(1,3,0) >= 0
 R_SameTable(T0)(P1,4): 0.5 X(1,0) + 0.5 X(4,0) - Y(1,4,0) >= 0
 R_SameTable(T0)(P1,5): 0.5 X(1,0) + 0.5 X(5,0) - Y(1,5,0) >= 0
 R_SameTable(T0)(P1,6): 0.5 X(1,0) + 0.5 X(6,0) - Y(1,6,0) >= 0
 R_SameTable(T0)(P1,7): 0.5 X(1,0) + 0.5 X(7,0) - Y(1,7,0) >= 0
 R_SameTable(T0)(P2,0): 0.5 X(0,0) + 0.5 X(2,0) - Y(2,0,0) >= 0
 R_SameTable(T0)(P2,1): 0.5 X(1,0) + 0.5 X(2,0) - Y(2,1,0) >= 0
 R_SameTable(T0)(P2,2): X(2,0) - Y(2,2,0) >= 0
 R_SameTable(T0)(P2,3): 0.5 X(2,0) + 0.5 X(3,0) - Y(2,3,0) >= 0
 R_SameTable(T0)(P2,4): 0.5 X(2,0) + 0.5 X(4,0) - Y(2,4,0) >= 0
 R_SameTable(T0)(P2,5): 0.5 X(2,0) + 0.5 X(5,0) - Y(2,5,0) >= 0
 R_SameTable(T0)(P2,6): 0.5 X(2,0) + 0.5 X(6,0) - Y(2,6,0) >= 0
 R_SameTable(T0)(P2,7): 0.5 X(2,0) + 0.5 X(7,0) - Y(2,7,0) >= 0
 R_SameTable(T0)(P3,0): 0.5 X(0,0) + 0.5 X(3,0) - Y(3,0,0) >= 0
 R_SameTable(T0)(P3,1): 0.5 X(1,0) + 0.5 X(3,0) - Y(3,1,0) >= 0
 R_SameTable(T0)(P3,2): 0.5 X(2,0) + 0.5 X(3,0) - Y(3,2,0) >= 0
 R_SameTable(T0)(P3,3): X(3,0) - Y(3,3,0) >= 0
 R_SameTable(T0)(P3,4): 0.5 X(3,0) + 0.5 X(4,0) - Y(3,4,0) >= 0
 R_SameTable(T0)(P3,5): 0.5 X(3,0) + 0.5 X(5,0) - Y(3,5,0) >= 0
 R_SameTable(T0)(P3,6): 0.5 X(3,0) + 0.5 X(6,0) - Y(3,6,0) >= 0
 R_SameTable(T0)(P3,7): 0.5 X(3,0) + 0.5 X(7,0) - Y(3,7,0) >= 0
 R_SameTable(T0)(P4,0): 0.5 X(0,0) + 0.5 X(4,0) - Y(4,0,0) >= 0
 R_SameTable(T0)(P4,1): 0.5 X(1,0) + 0.5 X(4,0) - Y(4,1,0) >= 0
 R_SameTable(T0)(P4,2): 0.5 X(2,0) + 0.5 X(4,0) - Y(4,2,0) >= 0
 R_SameTable(T0)(P4,3): 0.5 X(3,0) + 0.5 X(4,0) - Y(4,3,0) >= 0
 R_SameTable(T0)(P4,4): X(4,0) - Y(4,4,0) >= 0
 R_SameTable(T0)(P4,5): 0.5 X(4,0) + 0.5 X(5,0) - Y(4,5,0) >= 0
 R_SameTable(T0)(P4,6): 0.5 X(4,0) + 0.5 X(6,0) - Y(4,6,0) >= 0
 R_SameTable(T0)(P4,7): 0.5 X(4,0) + 0.5 X(7,0) - Y(4,7,0) >= 0
 R_SameTable(T0)(P5,0): 0.5 X(0,0) + 0.5 X(5,0) - Y(5,0,0) >= 0
 R_SameTable(T0)(P5,1): 0.5 X(1,0) + 0.5 X(5,0) - Y(5,1,0) >= 0
 R_SameTable(T0)(P5,2): 0.5 X(2,0) + 0.5 X(5,0) - Y(5,2,0) >= 0
 R_SameTable(T0)(P5,3): 0.5 X(3,0) + 0.5 X(5,0) - Y(5,3,0) >= 0
 R_SameTable(T0)(P5,4): 0.5 X(4,0) + 0.5 X(5,0) - Y(5,4,0) >= 0
 R_SameTable(T0)(P5,5): X(5,0) - Y(5,5,0) >= 0
 R_SameTable(T0)(P5,6): 0.5 X(5,0) + 0.5 X(6,0) - Y(5,6,0) >= 0
 R_SameTable(T0)(P5,7): 0.5 X(5,0) + 0.5 X(7,0) - Y(5,7,0) >= 0
 R_SameTable(T0)(P6,0): 0.5 X(0,0) + 0.5 X(6,0) - Y(6,0,0) >= 0
 R_SameTable(T0)(P6,1): 0.5 X(1,0) + 0.5 X(6,0) - Y(6,1,0) >= 0
 R_SameTable(T0)(P6,2): 0.5 X(2,0) + 0.5 X(6,0) - Y(6,2,0) >= 0
 R_SameTable(T0)(P6,3): 0.5 X(3,0) + 0.5 X(6,0) - Y(6,3,0) >= 0
 R_SameTable(T0)(P6,4): 0.5 X(4,0) + 0.5 X(6,0) - Y(6,4,0) >= 0
 R_SameTable(T0)(P6,5): 0.5 X(5,0) + 0.5 X(6,0) - Y(6,5,0) >= 0
 R_SameTable(T0)(P6,6): X(6,0) - Y(6,6,0) >= 0
 R_SameTable(T0)(P6,7): 0.5 X(6,0) + 0.5 X(7,0) - Y(6,7,0) >= 0
 R_SameTable(T0)(P7,0): 0.5 X(0,0) + 0.5 X(7,0) - Y(7,0,0) >= 0
 R_SameTable(T0)(P7,1): 0.5 X(1,0) + 0.5 X(7,0) - Y(7,1,0) >= 0
 R_SameTable(T0)(P7,2): 0.5 X(2,0) + 0.5 X(7,0) - Y(7,2,0) >= 0
 R_SameTable(T0)(P7,3): 0.5 X(3,0) + 0.5 X(7,0) - Y(7,3,0) >= 0
 R_SameTable(T0)(P7,4): 0.5 X(4,0) + 0.5 X(7,0) - Y(7,4,0) >= 0
 R_SameTable(T0)(P7,5): 0.5 X(5,0) + 0.5 X(7,0) - Y(7,5,0) >= 0
 R_SameTable(T0)(P7,6): 0.5 X(6,0) + 0.5 X(7,0) - Y(7,6,0) >= 0
 R_SameTable(T0)(P7,7): X(7,0) - Y(7,7,0) >= 0
 R_SameTable(T1)(P0,0): X(0,1) - Y(0,0,1) >= 0
 R_SameTable(T1)(P0,1): 0.5 X(0,1) + 0.5 X(1,1) - Y(0,1,1) >= 0
 R_SameTable(T1)(P0,2): 0.5 X(0,1) + 0.5 X(2,1) - Y(0,2,1) >= 0
 R_SameTable(T1)(P0,3): 0.5 X(0,1) + 0.5 X(3,1) - Y(0,3,1) >= 0
 R_SameTable(T1)(P0,4): 0.5 X(0,1) + 0.5 X(4,1) - Y(0,4,1) >= 0
 R_SameTable(T1)(P0,5): 0.5 X(0,1) + 0.5 X(5,1) - Y(0,5,1) >= 0
 R_SameTable(T1)(P0,6): 0.5 X(0,1) + 0.5 X(6,1) - Y(0,6,1) >= 0
 R_SameTable(T1)(P0,7): 0.5 X(0,1) + 0.5 X(7,1) - Y(0,7,1) >= 0
 R_SameTable(T1)(P1,0): 0.5 X(0,1) + 0.5 X(1,1) - Y(1,0,1) >= 0
 R_SameTable(T1)(P1,1): X(1,1) - Y(1,1,1) >= 0
 R_SameTable(T1)(P1,2): 0.5 X(1,1) + 0.5 X(2,1) - Y(1,2,1) >= 0
 R_SameTable(T1)(P1,3): 0.5 X(1,1) + 0.5 X(3,1) - Y(1,3,1) >= 0
 R_SameTable(T1)(P1,4): 0.5 X(1,1) + 0.5 X(4,1) - Y(1,4,1) >= 0
 R_SameTable(T1)(P1,5): 0.5 X(1,1) + 0.5 X(5,1) - Y(1,5,1) >= 0
 R_SameTable(T1)(P1,6): 0.5 X(1,1) + 0.5 X(6,1) - Y(1,6,1) >= 0
 R_SameTable(T1)(P1,7): 0.5 X(1,1) + 0.5 X(7,1) - Y(1,7,1) >= 0
 R_SameTable(T1)(P2,0): 0.5 X(0,1) + 0.5 X(2,1) - Y(2,0,1) >= 0
 R_SameTable(T1)(P2,1): 0.5 X(1,1) + 0.5 X(2,1) - Y(2,1,1) >= 0
 R_SameTable(T1)(P2,2): X(2,1) - Y(2,2,1) >= 0
 R_SameTable(T1)(P2,3): 0.5 X(2,1) + 0.5 X(3,1) - Y(2,3,1) >= 0
 R_SameTable(T1)(P2,4): 0.5 X(2,1) + 0.5 X(4,1) - Y(2,4,1) >= 0
 R_SameTable(T1)(P2,5): 0.5 X(2,1) + 0.5 X(5,1) - Y(2,5,1) >= 0
 R_SameTable(T1)(P2,6): 0.5 X(2,1) + 0.5 X(6,1) - Y(2,6,1) >= 0
 R_SameTable(T1)(P2,7): 0.5 X(2,1) + 0.5 X(7,1) - Y(2,7,1) >= 0
 R_SameTable(T1)(P3,0): 0.5 X(0,1) + 0.5 X(3,1) - Y(3,0,1) >= 0
 R_SameTable(T1)(P3,1): 0.5 X(1,1) + 0.5 X(3,1) - Y(3,1,1) >= 0
 R_SameTable(T1)(P3,2): 0.5 X(2,1) + 0.5 X(3,1) - Y(3,2,1) >= 0
 R_SameTable(T1)(P3,3): X(3,1) - Y(3,3,1) >= 0
 R_SameTable(T1)(P3,4): 0.5 X(3,1) + 0.5 X(4,1) - Y(3,4,1) >= 0
 R_SameTable(T1)(P3,5): 0.5 X(3,1) + 0.5 X(5,1) - Y(3,5,1) >= 0
 R_SameTable(T1)(P3,6): 0.5 X(3,1) + 0.5 X(6,1) - Y(3,6,1) >= 0
 R_SameTable(T1)(P3,7): 0.5 X(3,1) + 0.5 X(7,1) - Y(3,7,1) >= 0
 R_SameTable(T1)(P4,0): 0.5 X(0,1) + 0.5 X(4,1) - Y(4,0,1) >= 0
 R_SameTable(T1)(P4,1): 0.5 X(1,1) + 0.5 X(4,1) - Y(4,1,1) >= 0
 R_SameTable(T1)(P4,2): 0.5 X(2,1) + 0.5 X(4,1) - Y(4,2,1) >= 0
 R_SameTable(T1)(P4,3): 0.5 X(3,1) + 0.5 X(4,1) - Y(4,3,1) >= 0
 R_SameTable(T1)(P4,4): X(4,1) - Y(4,4,1) >= 0
 R_SameTable(T1)(P4,5): 0.5 X(4,1) + 0.5 X(5,1) - Y(4,5,1) >= 0
 R_SameTable(T1)(P4,6): 0.5 X(4,1) + 0.5 X(6,1) - Y(4,6,1) >= 0
 R_SameTable(T1)(P4,7): 0.5 X(4,1) + 0.5 X(7,1) - Y(4,7,1) >= 0
 R_SameTable(T1)(P5,0): 0.5 X(0,1) + 0.5 X(5,1) - Y(5,0,1) >= 0
 R_SameTable(T1)(P5,1): 0.5 X(1,1) + 0.5 X(5,1) - Y(5,1,1) >= 0
 R_SameTable(T1)(P5,2): 0.5 X(2,1) + 0.5 X(5,1) - Y(5,2,1) >= 0
 R_SameTable(T1)(P5,3): 0.5 X(3,1) + 0.5 X(5,1) - Y(5,3,1) >= 0
 R_SameTable(T1)(P5,4): 0.5 X(4,1) + 0.5 X(5,1) - Y(5,4,1) >= 0
 R_SameTable(T1)(P5,5): X(5,1) - Y(5,5,1) >= 0
 R_SameTable(T1)(P5,6): 0.5 X(5,1) + 0.5 X(6,1) - Y(5,6,1) >= 0
 R_SameTable(T1)(P5,7): 0.5 X(5,1) + 0.5 X(7,1) - Y(5,7,1) >= 0
 R_SameTable(T1)(P6,0): 0.5 X(0,1) + 0.5 X(6,1) - Y(6,0,1) >= 0
 R_SameTable(T1)(P6,1): 0.5 X(1,1) + 0.5 X(6,1) - Y(6,1,1) >= 0
 R_SameTable(T1)(P6,2): 0.5 X(2,1) + 0.5 X(6,1) - Y(6,2,1) >= 0
 R_SameTable(T1)(P6,3): 0.5 X(3,1) + 0.5 X(6,1) - Y(6,3,1) >= 0
 R_SameTable(T1)(P6,4): 0.5 X(4,1) + 0.5 X(6,1) - Y(6,4,1) >= 0
 R_SameTable(T1)(P6,5): 0.5 X(5,1) + 0.5 X(6,1) - Y(6,5,1) >= 0
 R_SameTable(T1)(P6,6): X(6,1) - Y(6,6,1) >= 0
 R_SameTable(T1)(P6,7): 0.5 X(6,1) + 0.5 X(7,1) - Y(6,7,1) >= 0
 R_SameTable(T1)(P7,0): 0.5 X(0,1) + 0.5 X(7,1) - Y(7,0,1) >= 0
 R_SameTable(T1)(P7,1): 0.5 X(1,1) + 0.5 X(7,1) - Y(7,1,1) >= 0
 R_SameTable(T1)(P7,2): 0.5 X(2,1) + 0.5 X(7,1) - Y(7,2,1) >= 0
 R_SameTable(T1)(P7,3): 0.5 X(3,1) + 0.5 X(7,1) - Y(7,3,1) >= 0
 R_SameTable(T1)(P7,4): 0.5 X(4,1) + 0.5 X(7,1) - Y(7,4,1) >= 0
 R_SameTable(T1)(P7,5): 0.5 X(5,1) + 0.5 X(7,1) - Y(7,5,1) >= 0
 R_SameTable(T1)(P7,6): 0.5 X(6,1) + 0.5 X(7,1) - Y(7,6,1) >= 0
 R_SameTable(T1)(P7,7): X(7,1) - Y(7,7,1) >= 0
Bounds
 0 <= X(0,0) <= 1
 0 <= X(0,1) <= 1
 0 <= X(1,0) <= 1
 0 <= X(1,1) <= 1
 0 <= X(2,0) <= 1
 0 <= X(2,1) <= 1
 0 <= X(3,0) <= 1
 0 <= X(3,1) <= 1
 0 <= X(4,0) <= 1
 0 <= X(4,1) <= 1
 0 <= X(5,0) <= 1
 0 <= X(5,1) <= 1
 0 <= X(6,0) <= 1
 0 <= X(6,1) <= 1
 0 <= X(7,0) <= 1
 0 <= X(7,1) <= 1
 0 <= Y(0,0,0) <= 1
 0 <= Y(0,0,1) <= 1
 0 <= Y(0,1,0) <= 1
 0 <= Y(0,1,1) <= 1
 0 <= Y(0,2,0) <= 1
 0 <= Y(0,2,1) <= 1
 0 <= Y(0,3,0) <= 1
 0 <= Y(0,3,1) <= 1
 0 <= Y(0,4,0) <= 1
 0 <= Y(0,4,1) <= 1
 0 <= Y(0,5,0) <= 1
 0 <= Y(0,5,1) <= 1
 0 <= Y(0,6,0) <= 1
 0 <= Y(0,6,1) <= 1
 0 <= Y(0,7,0) <= 1
 0 <= Y(0,7,1) <= 1
 0 <= Y(1,0,0) <= 1
 0 <= Y(1,0,1) <= 1
 0 <= Y(1,1,0) <= 1
 0 <= Y(1,1,1) <= 1
 0 <= Y(1,2,0) <= 1
 0 <= Y(1,2,1) <= 1
 0 <= Y(1,3,0) <= 1
 0 <= Y(1,3,1) <= 1
 0 <= Y(1,4,0) <= 1
 0 <= Y(1,4,1) <= 1
 0 <= Y(1,5,0) <= 1
 0 <= Y(1,5,1) <= 1
 0 <= Y(1,6,0) <= 1
 0 <= Y(1,6,1) <= 1
 0 <= Y(1,7,0) <= 1
 0 <= Y(1,7,1) <= 1
 0 <= Y(2,0,0) <= 1
 0 <= Y(2,0,1) <= 1
 0 <= Y(2,1,0) <= 1
 0 <= Y(2,1,1) <= 1
 0 <= Y(2,2,0) <= 1
 0 <= Y(2,2,1) <= 1
 0 <= Y(2,3,0) <= 1
 0 <= Y(2,3,1) <= 1
 0 <= Y(2,4,0) <= 1
 0 <= Y(2,4,1) <= 1
 0 <= Y(2,5,0) <= 1
 0 <= Y(2,5,1) <= 1
 0 <= Y(2,6,0) <= 1
 0 <= Y(2,6,1) <= 1
 0 <= Y(2,7,0) <= 1
 0 <= Y(2,7,1) <= 1
 0 <= Y(3,0,0) <= 1
 0 <= Y(3,0,1) <= 1
 0 <= Y(3,1,0) <= 1
 0 <= Y(3,1,1) <= 1
 0 <= Y(3,2,0) <= 1
 0 <= Y(3,2,1) <= 1
 0 <= Y(3,3,0) <= 1
 0 <= Y(3,3,1) <= 1
 0 <= Y(3,4,0) <= 1
 0 <= Y(3,4,1) <= 1
 0 <= Y(3,5,0) <= 1
 0 <= Y(3,5,1) <= 1
 0 <= Y(3,6,0) <= 1
 0 <= Y(3,6,1) <= 1
 0 <= Y(3,7,0) <= 1
 0 <= Y(3,7,1) <= 1
 0 <= Y(4,0,0) <= 1
 0 <= Y(4,0,1) <= 1
 0 <= Y(4,1,0) <= 1
 0 <= Y(4,1,1) <= 1
 0 <= Y(4,2,0) <= 1
 0 <= Y(4,2,1) <= 1
 0 <= Y(4,3,0) <= 1
 0 <= Y(4,3,1) <= 1
 0 <= Y(4,4,0) <= 1
 0 <= Y(4,4,1) <= 1
 0 <= Y(4,5,0) <= 1
 0 <= Y(4,5,1) <= 1
 0 <= Y(4,6,0) <= 1
 0 <= Y(4,6,1) <= 1
 0 <= Y(4,7,0) <= 1
 0 <= Y(4,7,1) <= 1
 0 <= Y(5,0,0) <= 1
 0 <= Y(5,0,1) <= 1
 0 <= Y(5,1,0) <= 1
 0 <= Y(5,1,1) <= 1
 0 <= Y(5,2,0) <= 1
 0 <= Y(5,2,1) <= 1
 0 <= Y(5,3,0) <= 1
 0 <= Y(5,3,1) <= 1
 0 <= Y(5,4,0) <= 1
 0 <= Y(5,4,1) <= 1
 0 <= Y(5,5,0) <= 1
 0 <= Y(5,5,1) <= 1
 0 <= Y(5,6,0) <= 1
 0 <= Y(5,6,1) <= 1
 0 <= Y(5,7,0) <= 1
 0 <= Y(5,7,1) <= 1
 0 <= Y(6,0,0) <= 1
 0 <= Y(6,0,1) <= 1
 0 <= Y(6,1,0) <= 1
 0 <= Y(6,1,1) <= 1
 0 <= Y(6,2,0) <= 1
 0 <= Y(6,2,1) <= 1
 0 <= Y(6,3,0) <= 1
 0 <= Y(6,3,1) <= 1
 0 <= Y(6,4,0) <= 1
 0 <= Y(6,4,1) <= 1
 0 <= Y(6,5,0) <= 1
 0 <= Y(6,5,1) <= 1
 0 <= Y(6,6,0) <= 1
 0 <= Y(6,6,1) <= 1
 0 <= Y(6,7,0) <= 1
 0 <= Y(6,7,1) <= 1
 0 <= Y(7,0,0) <= 1
 0 <= Y(7,0,1) <= 1
 0 <= Y(7,1,0) <= 1
 0 <= Y(7,1,1) <= 1
 0 <= Y(7,2,0) <= 1
 0 <= Y(7,2,1) <= 1
 0 <= Y(7,3,0) <= 1
 0 <= Y(7,3,1) <= 1
 0 <= Y(7,4,0) <= 1
 0 <= Y(7,4,1) <= 1
 0 <= Y(7,5,0) <= 1
 0 <= Y(7,5,1) <= 1
 0 <= Y(7,6,0) <= 1
 0 <= Y(7,6,1) <= 1
 0 <= Y(7,7,0) <= 1
 0 <= Y(7,7,1) <= 1
Binaries
 X(0,0)  X(0,1)  X(1,0)  X(1,1)  X(2,0)  X(2,1)  X(3,0)  X(3,1)  X(4,0) 
 X(4,1)  X(5,0)  X(5,1)  X(6,0)  X(6,1)  X(7,0)  X(7,1)  Y(0,0,0)  Y(0,0,1) 
 Y(0,1,0)  Y(0,1,1)  Y(0,2,0)  Y(0,2,1)  Y(0,3,0)  Y(0,3,1)  Y(0,4,0) 
 Y(0,4,1)  Y(0,5,0)  Y(0,5,1)  Y(0,6,0)  Y(0,6,1)  Y(0,7,0)  Y(0,7,1) 
 Y(1,0,0)  Y(1,0,1)  Y(1,1,0)  Y(1,1,1)  Y(1,2,0)  Y(1,2,1)  Y(1,3,0) 
 Y(1,3,1)  Y(1,4,0)  Y(1,4,1)  Y(1,5,0)  Y(1,5,1)  Y(1,6,0)  Y(1,6,1) 
 Y(1,7,0)  Y(1,7,1)  Y(2,0,0)  Y(2,0,1)  Y(2,1,0)  Y(2,1,1)  Y(2,2,0) 
 Y(2,2,1)  Y(2,3,0)  Y(2,3,1)  Y(2,4,0)  Y(2,4,1)  Y(2,5,0)  Y(2,5,1) 
 Y(2,6,0)  Y(2,6,1)  Y(2,7,0)  Y(2,7,1)  Y(3,0,0)  Y(3,0,1)  Y(3,1,0) 
 Y(3,1,1)  Y(3,2,0)  Y(3,2,1)  Y(3,3,0)  Y(3,3,1)  Y(3,4,0)  Y(3,4,1) 
 Y(3,5,0)  Y(3,5,1)  Y(3,6,0)  Y(3,6,1)  Y(3,7,0)  Y(3,7,1)  Y(4,0,0) 
 Y(4,0,1)  Y(4,1,0)  Y(4,1,1)  Y(4,2,0)  Y(4,2,1)  Y(4,3,0)  Y(4,3,1) 
 Y(4,4,0)  Y(4,4,1)  Y(4,5,0)  Y(4,5,1)  Y(4,6,0)  Y(4,6,1)  Y(4,7,0) 
 Y(4,7,1)  Y(5,0,0)  Y(5,0,1)  Y(5,1,0)  Y(5,1,1)  Y(5,2,0)  Y(5,2,1) 
 Y(5,3,0)  Y(5,3,1)  Y(5,4,0)  Y(5,4,1)  Y(5,5,0)  Y(5,5,1)  Y(5,6,0) 
 Y(5,6,1)  Y(5,7,0)  Y(5,7,1)  Y(6,0,0)  Y(6,0,1)  Y(6,1,0)  Y(6,1,1) 
 Y(6,2,0)  Y(6,2,1)  Y(6,3,0)  Y(6,3,1)  Y(6,4,0)  Y(6,4,1)  Y(6,5,0) 
 Y(6,5,1)  Y(6,6,0)  Y(6,6,1)  Y(6,7,0)  Y(6,7,1)  Y(7,0,0)  Y(7,0,1) 
 Y(7,1,0)  Y(7,1,1)  Y(7,2,0)  Y(7,2,1)  Y(7,3,0)  Y(7,3,1)  Y(7,4,0) 
 Y(7,4,1)  Y(7,5,0)  Y(7,5,1)  Y(7,6,0)  Y(7,6,1)  Y(7,7,0)  Y(7,7,1) 
End
